p cnf 60 512
1 2 3 0
4 5 6 0
7 8 9 0
10 11 12 0
13 14 15 0
16 17 18 0
19 20 21 0
22 23 24 0
25 26 27 0
28 29 30 0
31 32 33 0
34 35 36 0
37 38 39 0
40 41 42 0
43 44 45 0
46 47 48 0
49 50 51 0
52 53 54 0
55 56 57 0
58 59 60 0
-1 -2 0
-1 -3 0
-2 -3 0
-4 -5 0
-4 -6 0
-5 -6 0
-7 -8 0
-7 -9 0
-8 -9 0
-10 -11 0
-10 -12 0
-11 -12 0
-13 -14 0
-13 -15 0
-14 -15 0
-16 -17 0
-16 -18 0
-17 -18 0
-19 -20 0
-19 -21 0
-20 -21 0
-22 -23 0
-22 -24 0
-23 -24 0
-25 -26 0
-25 -27 0
-26 -27 0
-28 -29 0
-28 -30 0
-29 -30 0
-31 -32 0
-31 -33 0
-32 -33 0
-34 -35 0
-34 -36 0
-35 -36 0
-37 -38 0
-37 -39 0
-38 -39 0
-40 -41 0
-40 -42 0
-41 -42 0
-43 -44 0
-43 -45 0
-44 -45 0
-46 -47 0
-46 -48 0
-47 -48 0
-49 -50 0
-49 -51 0
-50 -51 0
-52 -53 0
-52 -54 0
-53 -54 0
-55 -56 0
-55 -57 0
-56 -57 0
-58 -59 0
-58 -60 0
-59 -60 0
-1 -10 0
-1 -28 0
-1 -37 0
-1 -46 0
-1 -52 0
-1 -58 0
-4 -7 0
-4 -10 0
-4 -22 0
-4 -34 0
-4 -40 0
-4 -46 0
-4 -52 0
-4 -58 0
-7 -4 0
-7 -19 0
-7 -25 0
-7 -31 0
-7 -34 0
-7 -37 0
-7 -40 0
-7 -46 0
-7 -52 0
-7 -58 0
-10 -1 0
-10 -4 0
-10 -22 0
-10 -25 0
-10 -34 0
-10 -49 0
-13 -28 0
-13 -31 0
-13 -34 0
-13 -46 0
-13 -49 0
-13 -52 0
-13 -55 0
-16 -25 0
-16 -28 0
-16 -37 0
-16 -40 0
-16 -49 0
-16 -55 0
-19 -7 0
-19 -22 0
-19 -34 0
-19 -40 0
-19 -43 0
-19 -49 0
-19 -58 0
-22 -4 0
-22 -10 0
-22 -19 0
-22 -25 0
-22 -28 0
-22 -31 0
-22 -55 0
-25 -7 0
-25 -10 0
-25 -16 0
-25 -22 0
-25 -37 0
-25 -40 0
-25 -52 0
-25 -58 0
-28 -1 0
-28 -13 0
-28 -16 0
-28 -22 0
-28 -40 0
-28 -52 0
-31 -7 0
-31 -13 0
-31 -22 0
-31 -43 0
-31 -46 0
-31 -52 0
-31 -58 0
-34 -4 0
-34 -7 0
-34 -10 0
-34 -13 0
-34 -19 0
-34 -49 0
-34 -52 0
-34 -55 0
-37 -1 0
-37 -7 0
-37 -16 0
-37 -25 0
-37 -40 0
-37 -43 0
-37 -46 0
-37 -49 0
-37 -58 0
-40 -4 0
-40 -7 0
-40 -16 0
-40 -19 0
-40 -25 0
-40 -28 0
-40 -37 0
-40 -49 0
-40 -55 0
-43 -19 0
-43 -31 0
-43 -37 0
-43 -46 0
-43 -55 0
-46 -1 0
-46 -4 0
-46 -7 0
-46 -13 0
-46 -31 0
-46 -37 0
-46 -43 0
-49 -10 0
-49 -13 0
-49 -16 0
-49 -19 0
-49 -34 0
-49 -37 0
-49 -40 0
-52 -1 0
-52 -4 0
-52 -7 0
-52 -13 0
-52 -25 0
-52 -28 0
-52 -31 0
-52 -34 0
-55 -13 0
-55 -16 0
-55 -22 0
-55 -34 0
-55 -40 0
-55 -43 0
-58 -1 0
-58 -4 0
-58 -7 0
-58 -19 0
-58 -25 0
-58 -31 0
-58 -37 0
-2 -11 0
-2 -29 0
-2 -38 0
-2 -47 0
-2 -53 0
-2 -59 0
-5 -8 0
-5 -11 0
-5 -23 0
-5 -35 0
-5 -41 0
-5 -47 0
-5 -53 0
-5 -59 0
-8 -5 0
-8 -20 0
-8 -26 0
-8 -32 0
-8 -35 0
-8 -38 0
-8 -41 0
-8 -47 0
-8 -53 0
-8 -59 0
-11 -2 0
-11 -5 0
-11 -23 0
-11 -26 0
-11 -35 0
-11 -50 0
-14 -29 0
-14 -32 0
-14 -35 0
-14 -47 0
-14 -50 0
-14 -53 0
-14 -56 0
-17 -26 0
-17 -29 0
-17 -38 0
-17 -41 0
-17 -50 0
-17 -56 0
-20 -8 0
-20 -23 0
-20 -35 0
-20 -41 0
-20 -44 0
-20 -50 0
-20 -59 0
-23 -5 0
-23 -11 0
-23 -20 0
-23 -26 0
-23 -29 0
-23 -32 0
-23 -56 0
-26 -8 0
-26 -11 0
-26 -17 0
-26 -23 0
-26 -38 0
-26 -41 0
-26 -53 0
-26 -59 0
-29 -2 0
-29 -14 0
-29 -17 0
-29 -23 0
-29 -41 0
-29 -53 0
-32 -8 0
-32 -14 0
-32 -23 0
-32 -44 0
-32 -47 0
-32 -53 0
-32 -59 0
-35 -5 0
-35 -8 0
-35 -11 0
-35 -14 0
-35 -20 0
-35 -50 0
-35 -53 0
-35 -56 0
-38 -2 0
-38 -8 0
-38 -17 0
-38 -26 0
-38 -41 0
-38 -44 0
-38 -47 0
-38 -50 0
-38 -59 0
-41 -5 0
-41 -8 0
-41 -17 0
-41 -20 0
-41 -26 0
-41 -29 0
-41 -38 0
-41 -50 0
-41 -56 0
-44 -20 0
-44 -32 0
-44 -38 0
-44 -47 0
-44 -56 0
-47 -2 0
-47 -5 0
-47 -8 0
-47 -14 0
-47 -32 0
-47 -38 0
-47 -44 0
-50 -11 0
-50 -14 0
-50 -17 0
-50 -20 0
-50 -35 0
-50 -38 0
-50 -41 0
-53 -2 0
-53 -5 0
-53 -8 0
-53 -14 0
-53 -26 0
-53 -29 0
-53 -32 0
-53 -35 0
-56 -14 0
-56 -17 0
-56 -23 0
-56 -35 0
-56 -41 0
-56 -44 0
-59 -2 0
-59 -5 0
-59 -8 0
-59 -20 0
-59 -26 0
-59 -32 0
-59 -38 0
-3 -12 0
-3 -30 0
-3 -39 0
-3 -48 0
-3 -54 0
-3 -60 0
-6 -9 0
-6 -12 0
-6 -24 0
-6 -36 0
-6 -42 0
-6 -48 0
-6 -54 0
-6 -60 0
-9 -6 0
-9 -21 0
-9 -27 0
-9 -33 0
-9 -36 0
-9 -39 0
-9 -42 0
-9 -48 0
-9 -54 0
-9 -60 0
-12 -3 0
-12 -6 0
-12 -24 0
-12 -27 0
-12 -36 0
-12 -51 0
-15 -30 0
-15 -33 0
-15 -36 0
-15 -48 0
-15 -51 0
-15 -54 0
-15 -57 0
-18 -27 0
-18 -30 0
-18 -39 0
-18 -42 0
-18 -51 0
-18 -57 0
-21 -9 0
-21 -24 0
-21 -36 0
-21 -42 0
-21 -45 0
-21 -51 0
-21 -60 0
-24 -6 0
-24 -12 0
-24 -21 0
-24 -27 0
-24 -30 0
-24 -33 0
-24 -57 0
-27 -9 0
-27 -12 0
-27 -18 0
-27 -24 0
-27 -39 0
-27 -42 0
-27 -54 0
-27 -60 0
-30 -3 0
-30 -15 0
-30 -18 0
-30 -24 0
-30 -42 0
-30 -54 0
-33 -9 0
-33 -15 0
-33 -24 0
-33 -45 0
-33 -48 0
-33 -54 0
-33 -60 0
-36 -6 0
-36 -9 0
-36 -12 0
-36 -15 0
-36 -21 0
-36 -51 0
-36 -54 0
-36 -57 0
-39 -3 0
-39 -9 0
-39 -18 0
-39 -27 0
-39 -42 0
-39 -45 0
-39 -48 0
-39 -51 0
-39 -60 0
-42 -6 0
-42 -9 0
-42 -18 0
-42 -21 0
-42 -27 0
-42 -30 0
-42 -39 0
-42 -51 0
-42 -57 0
-45 -21 0
-45 -33 0
-45 -39 0
-45 -48 0
-45 -57 0
-48 -3 0
-48 -6 0
-48 -9 0
-48 -15 0
-48 -33 0
-48 -39 0
-48 -45 0
-51 -12 0
-51 -15 0
-51 -18 0
-51 -21 0
-51 -36 0
-51 -39 0
-51 -42 0
-54 -3 0
-54 -6 0
-54 -9 0
-54 -15 0
-54 -27 0
-54 -30 0
-54 -33 0
-54 -36 0
-57 -15 0
-57 -18 0
-57 -24 0
-57 -36 0
-57 -42 0
-57 -45 0
-60 -3 0
-60 -6 0
-60 -9 0
-60 -21 0
-60 -27 0
-60 -33 0
-60 -39 0
